60
3
0 5 6 9 10 11 12 13 15 16 17 19 20 21 22 25 26 27 28 29 30 32 33 34 35 36 38 39 40 41 43 44 45 47 48 49 50 51 55 57 58 59
1 3 4 5 6 9 10 11 14 15 18 19 21 25 27 30 31 32 35 37 43 44 46 48 52 56
2 7 8 10 12 14 15 20 22 23 24 26 30 33 36 37 38 42 43 45 47 53 54 55 56
